%-----------------------------------------------------------------------------%
% Dual Arm Multi Capacity Multi Tool Scheduling / Routing
% Assembly Configuration
% Auto Generated by python script, authored by Johan Ludde Wessen 
%-----------------------------------------------------------------------------%


task_durations = [|24, 26, 25, 32, 26, 27, 32, 25, 25, 33, 43, 45, 58, 63, 60, 50, 53, 50, 44, 43, 29, 31, 31, 32,  7,  7,  8,  5,  5,  6,  6,  4,  7
                  |26, 26, 28, 32, 32, 30, 32, 27, 25, 27, 40, 49, 58, 63, 52, 44, 48, 43, 46, 39, 36, 31, 31, 31,  6,  6,  7,  5,  5,  5,  5,  5,  6
                  |];


TRAY_TASKS = 1..8;
CAMERA_TASKS = 21..24;
OUTPUT_TASKS = { 20 };


empty_gripper_tasks = 25..33;


gripper_pick_tasks_orders = [|1, 11, -1
|2, 12, -1
|3, 13, -1
|4, 14, -1
|9, 19, -1
|10, 20, -1
|];

suction_pick_tasks_orders = [|5, 21, 15, -1
|6, 22, 16, -1
|7, 23, 17, -1
|8, 24, 18, -1
|];

fixture_task_orders = [|15, 29, 11, 25, 16, 30, 12, 26, 9, -1, -1, -1
|17, 31, 13, 27, 18, 32, 14, 28, 19, 33, 10, -1
|];

